
#(C) 2020 by FIZ Karlsruhe - Leibniz Institute for Information Infrastructure.  All rights reserved.
data_110294-ICSD
_database_code_ICSD 110294
_audit_creation_date 2008-08-01
_chemical_name_common
'Heptakis(tetramethylammonium) dodecatungstovanadate pentadecahydrate'
_chemical_formula_structural '((C H3)4 N)7 (V W12 O40) (H2 O)15'
_chemical_formula_sum 'C28 H114 N7 O55 V1 W12'
_exptl_crystal_density_diffrn 3.06
_diffrn_ambient_temperature 133.
_citation_title

;
First 12-tungstovanadate Keggin compound: Synthesis and crystal structure of
(Me4 N)7 (V W12 O40) * 15(H2 O)
;
loop_
_citation_id
_citation_journal_full
_citation_year
_citation_journal_volume
_citation_page_first
_citation_page_last
_citation_journal_id_ASTM
primary
'Journal of the Chemical Society, Dalton Transactions: Inorganic Chemistry ' 1999 1999 1651 1654 JCDTBI
loop_
_citation_author_citation_id
_citation_author_name
primary 'Khan, M.I.'
primary 'Cevik, S.'
primary 'Hayashi, R.'
_cell_length_a 12.9094(2)
_cell_length_b 20.8420(6)
_cell_length_c 15.1180(2)
_cell_angle_alpha 90
_cell_angle_beta 100.302(2)
_cell_angle_gamma 90
_cell_volume 4002.04
_cell_formula_units_Z 2
_space_group_name_H-M_alt 'P 1 21/m 1'
_space_group_IT_number 11
loop_
_space_group_symop_id
_space_group_symop_operation_xyz
1 'x, -y+1/2, z'
2 '-x, -y, -z'
3 '-x, y+1/2, -z'
4 'x, y, z'
loop_
_atom_type_symbol
_atom_type_oxidation_number
W5+ 5.75
V4+ 4
O2- -2
N3- -3
C4+ 4
H1- -1
C4+ 4
H1- -1
C4+ 4
H1- -1
C4+ 4
H1- -1
N3- -3
C4+ 4
H1- -1
C4+ 4
H1- -1
C4+ 4
H1- -1
C4+ 4
H1- -1
N3- -3
C4+ 4
H1- -1
C4+ 4
H1- -1
C4+ 4
H1- -1
N3- -3
C4+ 4
H1- -1
C4+ 4
H1- -1
C4+ 4
H1- -1
N3- -3
C4+ 4
H1- -1
C4+ 4
H1- -1
C4+ 4
H1- -1
O2- -2
H1+ 1
O2- -2
H1+ 1
O2- -2
H1+ 1
O2- -2
H1+ 1
O2- -2
H1+ 1
O2- -2
H1+ 1
O2- -2
H1+ 1
O2- -2
H1+ 1
loop_
_atom_site_label
_atom_site_type_symbol
_atom_site_symmetry_multiplicity
_atom_site_Wyckoff_symbol
_atom_site_fract_x
_atom_site_fract_y
_atom_site_fract_z
_atom_site_B_iso_or_equiv
_atom_site_occupancy
W1 W5+ 2 e 0.30579(5) 0.25 0.04904(4) . 1.
W2 W5+ 4 f 0.22223(3) 0.16930(2) 0.21312(3) . 1.
W3 W5+ 4 f 0.55701(4) 0.16183(2) 0.09442(3) . 1.
W4 W5+ 4 f 0.47405(3) 0.08095(2) 0.25825(3) . 1.
W5 W5+ 4 f 0.38192(3) 0.16951(2) 0.44160(3) . 1.
W6 W5+ 4 f 0.70065(4) 0.16218(2) 0.30022(3) . 1.
W7 W5+ 2 e 0.60823(5) 0.25 0.48072(4) . 1.
V1 V4+ 2 e 0.4653(2) 0.25 0.2620(2) . 1.
O1 O2- 2 e 0.2544(7) 0.25 -0.0632(6) . 1.
O2 O2- 4 f 0.1183(5) 0.1174(3) 0.2057(5) . 1.
O3 O2- 4 f 0.5908(6) 0.1320(3) -0.0019(4) . 1.
O4 O2- 4 f 0.4515(5) 0.0005(3) 0.2653(4) . 1.
O5 O2- 4 f 0.3294(5) 0.1189(3) 0.5113(4) . 1.
O6 O2- 4 f 0.8244(5) 0.1326(3) 0.3381(5) . 1.
O7 O2- 2 e 0.7019(7) 0.25 0.5744(6) . 1.
O8 O2- 4 f 0.2174(5) 0.1855(3) 0.0867(4) . 1.
O9 O2- 4 f 0.4153(5) 0.1880(3) 0.0538(4) . 1.
O10 O2- 2 e 0.1492(7) 0.25 0.2176(6) . 1.
O11 O2- 4 f 0.3358(5) 0.1123(3) 0.2105(4) . 1.
O12 O2- 4 f 0.2702(5) 0.1743(3) 0.3393(4) . 1.
O13 O2- 2 e 0.5921(7) 0.25 0.0873(6) . 1.
O14 O2- 4 f 0.5075(5) 0.0841(3) 0.1394(4) . 1.
O15 O2- 4 f 0.6879(5) 0.1480(3) 0.1748(4) . 1.
O16 O2- 4 f 0.4467(5) 0.1113(3) 0.3716(4) . 1.
O17 O2- 4 f 0.6234(5) 0.0822(3) 0.3064(4) . 1.
O18 O2- 2 e 0.3317(7) 0.25 0.4821(6) . 1.
O19 O2- 4 f 0.5143(5) 0.1864(3) 0.5165(4) . 1.
O20 O2- 2 e 0.7283(7) 0.25 0.2836(6) . 1.
O21 O2- 4 f 0.6622(5) 0.1870(3) 0.4110(4) . 1.
O22 O2- 2 e 0.3464(7) 0.25 0.2043(5) . 1.
O23 O2- 4 f 0.5273(5) 0.1862(3) 0.2373(4) . 1.
O24 O2- 2 e 0.4596(7) 0.25 0.3686(5) . 1.
N1 N3- 4 f 0.7450(7) 0.0453(4) 0.5859(6) . 1.
C1 C4+ 4 f 0.6329(8) 0.0351(5) 0.5381(7) . 1.
H1 H1- 4 f 0.5856(8) 0.0415(5) 0.5797(7) . 1.
H2 H1- 4 f 0.6168(8) 0.0653(5) 0.4897(7) . 1.
H3 H1- 4 f 0.6250(8) -0.0077(5) 0.5146(7) . 1.
C2 C4+ 4 f 0.7731(9) -0.0004(5) 0.6589(8) . 1.
H4 H1- 4 f 0.7277(9) 0.0055(5) 0.7021(8) . 1.
H5 H1- 4 f 0.7650(9) -0.0433(5) 0.6353(8) . 1.
H6 H1- 4 f 0.8449(9) 0.0062(5) 0.6874(8) . 1.
C3 C4+ 4 f 0.8180(11) 0.0345(11) 0.5191(9) . 1.
H7 H1- 4 f 0.8897(11) 0.0406(11) 0.5484(9) . 1.
H8 H1- 4 f 0.8093(11) -0.0084(11) 0.4957(9) . 1.
H9 H1- 4 f 0.8011(11) 0.0647(11) 0.4707(9) . 1.
C4 C4+ 4 f 0.7535(16) 0.1120(7) 0.6219(15) . 1.
H10 H1- 4 f 0.7072(16) 0.1180(7) 0.6643(15) . 1.
H11 H1- 4 f 0.8248(16) 0.1197(7) 0.6509(15) . 1.
H12 H1- 4 f 0.7349(16) 0.1414(7) 0.5727(15) . 1.
N2 N3- 4 f 0.2690(7) 0.0410(4) -0.0797(6) . 1.
C5 C4+ 4 f 0.2218(11) -0.0187(6) -0.1258(9) . 1.
H13 H1- 4 f 0.1525(11) -0.0251(6) -0.1126(9) . 1.
H14 H1- 4 f 0.2174(11) -0.0142(6) -0.1896(9) . 1.
H15 H1- 4 f 0.2651(11) -0.0550(6) -0.1050(9) . 1.
C6 C4+ 4 f 0.3769(12) 0.0497(10) -0.1011(11) . 1.
H16 H1- 4 f 0.4086(12) 0.0876(10) -0.0719(11) . 1.
H17 H1- 4 f 0.4195(12) 0.013(1) -0.0803(11) . 1.
H18 H1- 4 f 0.3718(12) 0.0539(10) -0.1649(11) . 1.
C7 C4+ 4 f 0.2774(13) 0.0377(8) 0.0193(9) . 1.
H19 H1- 4 f 0.3080(13) 0.0767(8) 0.0456(9) . 1.
H20 H1- 4 f 0.2088(13) 0.0321(8) 0.0343(9) . 1.
H21 H1- 4 f 0.3214(13) 0.0021(8) 0.0421(9) . 1.
C8 C4+ 4 f 0.1988(15) 0.0967(7) -0.1136(12) . 1.
H22 H1- 4 f 0.2273(15) 0.1355(7) -0.0850(12) . 1.
H23 H1- 4 f 0.1943(15) 0.1005(7) -0.1775(12) . 1.
H24 H1- 4 f 0.1298(15) 0.0894(7) -0.1003(12) . 1.
N3 N3- 2 e 0.4667(11) 0.25 0.7574(8) . 1.
C9 C4+ 2 e 0.4735(13) 0.25 0.8566(10) . 1.
H25 H1- 4 f 0.5111(13) 0.2125 0.8816(10) . 1.
H26 H1- 2 e 0.4039(13) 0.25 0.8709(10) . 1.
C10 C4+ 2 e 0.5753(17) 0.25 0.7364(13) . 1.
H27 H1- 4 f 0.6123(17) 0.2126 0.7622(13) . 1.
H28 H1- 2 e 0.5718(17) 0.25 0.6724(13) . 1.
C11 C4+ 4 f 0.4085(14) 0.1912(9) 0.7185(10) . 1.
H29 H1- 4 f 0.4459(14) 0.1538(9) 0.7438(10) . 1.
H30 H1- 4 f 0.3389(14) 0.1910(9) 0.7325(10) . 1.
H31 H1- 4 f 0.4041(14) 0.1910(9) 0.6544(10) . 1.
N4 N3- 2 e 0.0350(9) 0.25 0.4870(8) . 1.
C12 C4+ 2 e -0.0768(11) 0.25 0.5041(11) . 1.
H32 H1- 4 f -0.1124(11) 0.2124 0.4775(11) . 1.
H33 H1- 2 e -0.0770(11) 0.25 0.5676(11) . 1.
C13 C4+ 2 e 0.0395(16) 0.25 0.3882(10) . 1.
H34 H1- 4 f 0.0045(16) 0.2124 0.361(1) . 1.
H35 H1- 2 e 0.1113(16) 0.25 0.3793(10) . 1.
C14 C4+ 4 f 0.0917(11) 0.1919(7) 0.5296(9) . 1.
H36 H1- 4 f 0.0899(11) 0.1919(7) 0.5929(9) . 1.
H37 H1- 4 f 0.0578(11) 0.1538(7) 0.5027(9) . 1.
H38 H1- 4 f 0.1635(11) 0.1926(7) 0.5208(9) . 1.
N5 N3- 2 e 0.8936(9) 0.25 0.0346(9) . 1.
C15 C4+ 2 e 0.7918(12) 0.25 -0.0313(10) . 1.
H39 H1- 4 f 0.7884(12) 0.2124 -0.0684(10) . 1.
H40 H1- 2 e 0.7338(12) 0.25 0.0005(10) . 1.
C16 C4+ 2 e 0.9847(13) 0.25 -0.0149(13) . 1.
H41 H1- 4 f 0.9814(13) 0.2124 -0.0520(13) . 1.
H42 H1- 2 e 1.0495(13) 0.25 0.0276(13) . 1.
C17 C4+ 4 f 0.8945(13) 0.1898(12) 0.0860(14) . 1.
H43 H1- 4 f 0.9581(13) 0.1868(12) 0.1298(14) . 1.
H44 H1- 4 f 0.8348(13) 0.1879(12) 0.1157(14) . 1.
H45 H1- 4 f 0.8914(13) 0.1548(12) 0.0442(14) . 1.
O25 O2- 4 f 0.2924(6) 0.0474(4) 0.6675(5) . 1.
H46 H1+ 4 f 0.3031(6) 0.0685(4) 0.6219(5) . 1.
H47 H1+ 4 f 0.3170(6) 0.0096(4) 0.6752(5) . 1.
O26 O2- 4 f 0.0733(7) 0.0543(4) 0.6539(6) . 1.
H48 H1+ 4 f 0.0494(7) 0.0165(4) 0.6574(6) . 1.
H49 H1+ 4 f 0.1398(7) 0.0523(4) 0.6581(6) . 1.
O27 O2- 4 f 1.0031(8) 0.0691(4) 0.3354(8) . 1.
H50 H1+ 4 f 1.0374(8) 0.0834(4) 0.2965(8) . 1.
H51 H1+ 4 f 0.9462(8) 0.0893(4) 0.3365(8) . 1.
O28 O2- 4 f 0.6547(8) 0.1023(4) -0.1630(6) . 1.
H52 H1+ 4 f 0.6352(8) 0.1115(4) -0.1137(6) . 1.
H53 H1+ 4 f 0.6230(8) 0.0717(4) -0.1937(6) . 1.
O29 O2- 2 e 0.1251(12) 0.25 -0.2315(8) . 1.
H54 H1+ 2 e 0.1646(12) 0.25 -0.1801(8) . 1.
H55 H1+ 4 f 0.0830(12) 0.2183 -0.2384(8) . .5
O30 O2- 4 f -0.0103(8) 0.1483(6) 0.7460(8) . 1.
H56 H1+ 4 f 0.0158(8) 0.1193(6) 0.7172(8) . 1.
H57 H1+ 4 f -0.0445(8) 0.1338(6) 0.7848(8) . .5
H58 H1+ 4 f 0.0319(8) 0.1800(6) 0.7529(8) . .5
O31 O2- 4 f 0.1219(10) -0.1021(7) 0.1290(11) . 1.
H59 H1+ 4 f 0.1888(10) -0.1023(7) 0.1390(11) . 1.
H60 H1+ 4 f 0.0876(10) -0.1165(7) 0.1677(11) . .5
H61 H1+ 4 f 0.0939(10) -0.0657(7) 0.1148(11) . .5
O32 O2- 4 f 0.0328(10) 0.0129(9) 0.0843(11) . 1.
H62 H1+ 4 f 0.0577(10) 0.0431(9) 0.1196(11) . .5
H63 H1+ 4 f 0.0607(10) -0.0235(9) 0.0985(11) . .5
H64 H1+ 4 f 0.0112(10) 0.0045(9) 0.0291(11) . 1.
#End of TTdata_110294-ICSD