
#(C) 2020 by FIZ Karlsruhe - Leibniz Institute for Information Infrastructure.  All rights reserved.
data_166876-ICSD
_database_code_ICSD 166876
_audit_creation_date 2010-08-01
_chemical_name_common 'Tris(methylammonium) phospho(V)dodecatungstate dihydrate'
_chemical_formula_structural '((C H3) N H3)3 (P W12 O40) (H2 O)2'
_chemical_formula_sum 'C3 H22 N3 O42 P1 W12'
_exptl_crystal_density_diffrn 4.37
_diffrn_ambient_temperature 123.
_citation_title

;
Structural relationships among methyl-, dimethyl- and trimethylammonium
phosphododecatungstates
;
loop_
_citation_id
_citation_journal_full
_citation_year
_citation_journal_volume
_citation_page_first
_citation_page_last
_citation_journal_id_ASTM
primary 'Bulletin of the Chemical Society of Japan' 2009 82 1393 1397 BCSJA8
loop_
_citation_author_citation_id
_citation_author_name
primary 'Busbongthong, S.'
primary 'Ozeki, T.'
_cell_length_a 13.0234(2)
_cell_length_b 13.3341(2)
_cell_length_c 13.3508(3)
_cell_angle_alpha 86.758(2)
_cell_angle_beta 81.586(1)
_cell_angle_gamma 88.179(2)
_cell_volume 2289.16
_cell_formula_units_Z 2
_space_group_name_H-M_alt 'P -1'
_space_group_IT_number 2
loop_
_space_group_symop_id
_space_group_symop_operation_xyz
1 '-x, -y, -z'
2 'x, y, z'
loop_
_atom_type_symbol
_atom_type_oxidation_number
P5+ 5
W6+ 6
O2- -2
N3- -3
C4+ 4
N3- -3
C4+ 4
N3- -3
C4+ 4
N3- -3
C4+ 4
N3- -3
C4+ 4
N3- -3
C4+ 4
N3- -3
C4+ 4
N3- -3
C4+ 4
N3- -3
C4+ 4
H1+ 1
H1- -1
loop_
_atom_site_label
_atom_site_type_symbol
_atom_site_symmetry_multiplicity
_atom_site_Wyckoff_symbol
_atom_site_fract_x
_atom_site_fract_y
_atom_site_fract_z
_atom_site_B_iso_or_equiv
_atom_site_occupancy
P1 P5+ 2 i 0.29238(17) 0.27176(15) 0.30179(17) 0.0123(4) 1
W1 W6+ 2 i 0.08292(3) 0.10458(3) 0.33585(3) 0.01973(9) 1
W2 W6+ 2 i 0.32128(3) 0.05650(3) 0.15420(3) 0.01883(9) 1
W3 W6+ 2 i 0.14114(3) 0.26660(3) 0.10056(3) 0.01968(9) 1
W4 W6+ 2 i 0.22638(3) 0.11815(3) 0.52863(3) 0.01891(9) 1
W5 W6+ 2 i 0.46330(3) 0.06653(3) 0.34790(3) 0.01786(9) 1
W6 W6+ 2 i 0.52337(3) 0.21804(3) 0.13193(3) 0.01850(9) 1
W7 W6+ 2 i 0.34404(3) 0.42709(3) 0.07584(3) 0.01982(9) 1
W8 W6+ 2 i 0.12295(3) 0.47403(3) 0.24232(3) 0.01974(9) 1
W9 W6+ 2 i 0.06155(3) 0.31283(3) 0.47612(3) 0.01961(9) 1
W10 W6+ 2 i 0.44557(3) 0.29175(3) 0.49930(3) 0.01815(9) 1
W11 W6+ 2 i 0.50038(3) 0.44304(3) 0.28421(3) 0.01926(9) 1
W12 W6+ 2 i 0.28027(3) 0.48723(3) 0.45063(3) 0.01967(9) 1
O1 O2- 2 i 0.2043(5) 0.2232(4) 0.3762(5) 0.0188(14) 1
O2 O2- 2 i 0.3652(5) 0.1897(4) 0.2543(5) 0.0159(13) 1
O3 O2- 2 i 0.2453(6) 0.3326(5) 0.2180(5) 0.0210(14) 1
O4 O2- 2 i 0.3527(5) 0.3415(4) 0.3577(5) 0.0187(14) 1
O5 O2- 2 i 0.2042(5) 0.0480(5) 0.2584(5) 0.0193(14) 1
O6 O2- 2 i 0.2444(5) 0.1590(5) 0.0929(5) 0.0203(14) 1
O7 O2- 2 i 0.0774(5) 0.1946(5) 0.2204(5) 0.0200(14) 1
O8 O2- 2 i 0.3374(5) 0.0596(5) 0.4363(5) 0.0187(14) 1
O9 O2- 2 i 0.4345(6) 0.3124(5) 0.0689(6) 0.0248(16) 1
O10 O2- 2 i 0.0600(6) 0.3905(5) 0.3515(5) 0.0225(15) 1
O11 O2- 2 i 0.3229(6) 0.2177(5) 0.5446(6) 0.0227(15) 1
O12 O2- 2 i 0.4900(6) 0.1812(5) 0.4194(5) 0.0189(14) 1
O13 O2- 2 i 0.5452(6) 0.3212(5) 0.2159(5) 0.0222(15) 1
O14 O2- 2 i 0.4173(6) 0.4689(5) 0.1792(5) 0.0202(14) 1
O15 O2- 2 i 0.2119(6) 0.5120(5) 0.3327(5) 0.0211(15) 1
O16 O2- 2 i 0.1688(6) 0.4008(5) 0.4977(5) 0.0203(14) 1
O17 O2- 2 i 0.1328(6) 0.0521(5) 0.4569(6) 0.0237(15) 1
O18 O2- 2 i 0.4021(6) -0.0039(4) 0.2517(5) 0.0201(14) 1
O19 O2- 2 i 0.4458(6) 0.1128(5) 0.0852(5) 0.0223(15) 1
O20 O2- 2 i 0.2425(6) 0.3498(5) 0.0219(5) 0.0209(14) 1
O21 O2- 2 i 0.0721(6) 0.3861(5) 0.1513(6) 0.0234(15) 1
O22 O2- 2 i 0.0044(6) 0.2032(5) 0.4150(6) 0.0229(15) 1
O23 O2- 2 i 0.1160(6) 0.2138(5) 0.5649(5) 0.0217(14) 1
O24 O2- 2 i 0.5566(5) 0.1219(5) 0.2357(6) 0.0198(14) 1
O25 O2- 2 i 0.2292(6) 0.5096(5) 0.1327(6) 0.0220(15) 1
O26 O2- 2 i 0.5345(6) 0.3752(5) 0.4060(6) 0.0211(15) 1
O27 O2- 2 i 0.4061(6) 0.5256(5) 0.3671(6) 0.0240(16) 1
O28 O2- 2 i 0.3625(6) 0.4113(5) 0.5331(5) 0.0220(15) 1
O29 O2- 2 i -0.0073(6) 0.0210(5) 0.3221(6) 0.0284(17) 1
O30 O2- 2 i 0.3027(6) -0.0438(5) 0.0856(6) 0.0268(16) 1
O31 O2- 2 i 0.0689(7) 0.2372(5) 0.0113(6) 0.0278(17) 1
O32 O2- 2 i 0.2227(6) 0.0435(5) 0.6357(6) 0.0270(16) 1
O33 O2- 2 i 0.5397(6) -0.0268(5) 0.3918(6) 0.0249(16) 1
O34 O2- 2 i 0.3913(7) 0.4995(5) -0.0272(6) 0.0311(18) 1
O35 O2- 2 i 0.0395(6) 0.5738(5) 0.2361(6) 0.0288(17) 1
O36 O2- 2 i -0.0442(6) 0.3563(5) 0.5526(6) 0.0267(16) 1
O37 O2- 2 i 0.5138(6) 0.2746(5) 0.5977(6) 0.0262(16) 1
O38 O2- 2 i 0.6346(6) 0.2176(5) 0.0475(6) 0.0262(16) 1
O39 O2- 2 i 0.6015(6) 0.5196(5) 0.2500(6) 0.0259(16) 1
O40 O2- 2 i 0.2480(7) 0.5921(5) 0.5165(6) 0.0298(18) 1
O41 O2- 2 i 0.1270(9) 0.9040(7) 0.9913(8) 0.051(3) 1
O42 O2- 2 i 0.9493(9) 0.9365(8) 0.1379(9) 0.057(3) 1
N1 N3- 2 i 0.2150(18) 0.2098(15) 0.8139(18) 0.025 0.4
C1 C4+ 2 i 0.193(2) 0.3132(18) 0.780(2) 0.025 0.4
N2 N3- 2 i 0.400(2) 0.236(2) 0.825(2) 0.025 0.3
C2 C4+ 2 i 0.3094(15) 0.1788(12) 0.8303(14) 0.025 0.3
N3 N3- 2 i 0.317(2) 0.068(2) 0.857(2) 0.025 0.3
C3 C4+ 2 i 0.3094(15) 0.1788(12) 0.8303(14) 0.025 0.3
N4 N3- 2 i 0.313(2) 0.7462(18) 0.291(2) 0.025 0.33
C4 C4+ 2 i 0.324(3) 0.715(2) 0.191(3) 0.025 0.33
N5 N3- 2 i 0.229(2) 0.8207(18) 0.444(2) 0.025 0.33
C5 C4+ 2 i 0.2382(13) 0.7859(11) 0.3390(13) 0.025 0.33
N6 N3- 2 i 0.140(2) 0.8057(18) 0.278(2) 0.025 0.33
C6 C4+ 2 i 0.2382(13) 0.7859(11) 0.3390(13) 0.025 0.33
N7 N3- 2 i 0.821(2) 0.2514(18) 0.178(2) 0.025 0.33
C7 C4+ 2 i 0.795(3) 0.189(2) 0.267(3) 0.025 0.33
N8 N3- 2 i 0.844(2) 0.2769(18) 0.110(2) 0.025 0.33
C8 C4+ 2 i 0.862(3) 0.369(2) 0.038(3) 0.025 0.33
N9 N3- 2 i 0.821(2) 0.3892(18) 0.250(2) 0.025 0.33
C9 C4+ 2 i 0.834(3) 0.333(2) 0.160(3) 0.025 0.33
loop_
_atom_site_aniso_label
_atom_site_aniso_type_symbol
_atom_site_aniso_U_11
_atom_site_aniso_U_22
_atom_site_aniso_U_33
_atom_site_aniso_U_12
_atom_site_aniso_U_13
_atom_site_aniso_U_23
P1 P5+ 0.0107(12) 0.0152(10) 0.0108(12) 0.0007(8) -0.0011(9) -0.0009(8)
W1 W6+ 0.0165(2) 0.02286(18) 0.0199(2) -0.00282(14) -0.00190(16) -0.00231(14)
W2 W6+ 0.0190(2) 0.02021(18) 0.0178(2) 0.00064(14) -0.00322(16) -0.00502(14)
W3 W6+ 0.0196(2) 0.02352(18) 0.0169(2) 0.00126(14) -0.00566(16) -0.00283(14)
W4 W6+ 0.0175(2) 0.02188(18) 0.0167(2) -0.00106(14) -0.00109(15) 0.00126(14)
W5 W6+ 0.0173(2) 0.01881(17) 0.0175(2) 0.00175(13) -0.00294(15) -0.00120(13)
W6 W6+ 0.0165(2) 0.02242(18) 0.0159(2) 0.00085(14) -0.00002(15) -0.00183(14)
W7 W6+ 0.0208(2) 0.02296(18) 0.0154(2) 0.00018(14) -0.00248(16) 0.00179(14)
W8 W6+ 0.0198(2) 0.02111(18) 0.0184(2) 0.00370(14) -0.00394(16) -0.00132(14)
W9 W6+ 0.0166(2) 0.02421(18) 0.0172(2) 0.00189(14) 0.00001(16) -0.00252(14)
W10 W6+ 0.0191(2) 0.02007(17) 0.0161(2) -0.00059(14) -0.00486(15) -0.00169(13)
W11 W6+ 0.0192(2) 0.02012(17) 0.0187(2) -0.00321(14) -0.00309(16) -0.00062(14)
W12 W6+ 0.0214(2) 0.01948(17) 0.0187(2) 0.00138(14) -0.00401(16) -0.00452(14)
O1 O2- 0.017(4) 0.019(3) 0.021(4) -0.004(2) -0.001(3) 0.000(2)
O2 O2- 0.016(3) 0.018(3) 0.014(3) -0.001(2) -0.002(3) -0.003(2)
O3 O2- 0.027(4) 0.023(3) 0.013(3) 0.001(3) -0.005(3) 0.000(2)
O4 O2- 0.019(4) 0.020(3) 0.019(4) -0.003(2) -0.007(3) -0.005(2)
O5 O2- 0.017(4) 0.024(3) 0.017(4) -0.003(3) -0.003(3) -0.003(2)
O6 O2- 0.018(4) 0.025(3) 0.018(4) 0.000(3) -0.001(3) -0.002(3)
O7 O2- 0.015(4) 0.025(3) 0.020(4) 0.004(3) -0.003(3) -0.004(3)
O8 O2- 0.018(4) 0.025(3) 0.013(3) -0.002(3) -0.002(3) -0.001(2)
O9 O2- 0.024(4) 0.029(3) 0.022(4) -0.001(3) -0.006(3) -0.004(3)
O10 O2- 0.025(4) 0.024(3) 0.019(4) 0.005(3) -0.005(3) -0.003(3)
O11 O2- 0.022(4) 0.027(3) 0.018(4) -0.001(3) 0.000(3) -0.003(3)
O12 O2- 0.018(4) 0.027(3) 0.011(3) -0.002(3) -0.001(3) 0.001(2)
O13 O2- 0.026(4) 0.024(3) 0.016(4) 0.000(3) 0.000(3) -0.001(3)
O14 O2- 0.020(4) 0.021(3) 0.019(4) -0.003(3) -0.001(3) 0.000(2)
O15 O2- 0.024(4) 0.021(3) 0.019(4) -0.002(3) -0.005(3) -0.001(2)
O16 O2- 0.019(4) 0.025(3) 0.017(4) -0.001(3) -0.004(3) -0.001(3)
O17 O2- 0.026(4) 0.023(3) 0.022(4) 0.000(3) 0.000(3) -0.002(3)
O18 O2- 0.023(4) 0.019(3) 0.018(4) 0.000(3) -0.002(3) -0.001(2)
O19 O2- 0.023(4) 0.026(3) 0.018(4) 0.005(3) -0.005(3) -0.006(3)
O20 O2- 0.019(4) 0.031(3) 0.013(3) -0.002(3) -0.002(3) 0.000(3)
O21 O2- 0.016(4) 0.029(3) 0.027(4) 0.004(3) -0.008(3) -0.002(3)
O22 O2- 0.017(4) 0.031(3) 0.020(4) -0.003(3) 0.001(3) 0.001(3)
O23 O2- 0.020(4) 0.028(3) 0.017(4) -0.002(3) -0.001(3) -0.002(3)
O24 O2- 0.011(3) 0.026(3) 0.023(4) 0.006(2) -0.005(3) -0.003(3)
O25 O2- 0.018(4) 0.023(3) 0.026(4) 0.006(3) -0.006(3) -0.004(3)
O26 O2- 0.020(4) 0.021(3) 0.022(4) 0.002(3) -0.004(3) -0.001(3)
O27 O2- 0.026(4) 0.023(3) 0.023(4) 0.004(3) -0.003(3) -0.001(3)
O28 O2- 0.026(4) 0.023(3) 0.018(4) 0.004(3) -0.003(3) -0.006(3)
O29 O2- 0.024(4) 0.032(4) 0.029(4) -0.004(3) -0.003(3) -0.001(3)
O30 O2- 0.034(5) 0.023(3) 0.023(4) -0.003(3) -0.004(3) -0.005(3)
O31 O2- 0.032(5) 0.030(4) 0.023(4) -0.002(3) -0.008(3) 0.000(3)
O32 O2- 0.030(4) 0.024(3) 0.025(4) 0.000(3) -0.001(3) 0.003(3)
O33 O2- 0.032(4) 0.024(3) 0.018(4) 0.001(3) -0.004(3) -0.002(3)
O34 O2- 0.035(5) 0.033(4) 0.024(4) 0.002(3) -0.006(4) 0.005(3)
O35 O2- 0.027(4) 0.032(4) 0.027(4) 0.005(3) -0.005(3) -0.002(3)
O36 O2- 0.020(4) 0.035(4) 0.025(4) 0.004(3) -0.001(3) -0.003(3)
O37 O2- 0.025(4) 0.027(3) 0.026(4) 0.000(3) -0.004(3) 0.002(3)
O38 O2- 0.020(4) 0.034(4) 0.023(4) 0.003(3) 0.003(3) -0.002(3)
O39 O2- 0.027(4) 0.030(4) 0.021(4) -0.008(3) -0.006(3) 0.000(3)
O40 O2- 0.039(5) 0.024(3) 0.029(4) 0.000(3) -0.011(4) -0.004(3)
O41 O2- 0.050(7) 0.072(6) 0.035(6) -0.012(5) -0.013(5) -0.011(5)
O42 O2- 0.046(7) 0.070(6) 0.060(7) -0.001(5) -0.012(6) -0.022(5)
#End of TTdata_166876-ICSD